TC_ILP/arf_1.0.lp
Minimize
M1 + M2
Subject To
x0,3 + x0,4 + x0,5 + x0,6 + x0,7 + x0,8 + x0,9 + x0,10 = 1
x1,3 + x1,4 + x1,5 + x1,6 + x1,7 + x1,8 + x1,9 + x1,10 = 1
x2,10 = 1
x3,10 = 1
x4,10 = 1
x5,10 = 1
x6,3 + x6,4 + x6,5 + x6,6 + x6,7 + x6,8 + x6,9 + x6,10 = 1
x7,3 + x7,4 + x7,5 + x7,6 + x7,7 + x7,8 + x7,9 + x7,10 = 1
x8,2 + x8,3 + x8,4 + x8,5 + x8,6 + x8,7 + x8,8 + x8,9 = 1
x9,9 = 1
x10,9 = 1
x11,2 + x11,3 + x11,4 + x11,5 + x11,6 + x11,7 + x11,8 + x11,9 = 1
x12,8 = 1
x13,8 = 1
x14,6 = 1
x15,6 = 1
x16,6 = 1
x17,6 = 1
x18,5 = 1
x19,5 = 1
x20,3 = 1
x21,3 = 1
x22,3 = 1
x23,3 = 1
x24,2 = 1
x25,2 = 1
x26,1 = 1
x27,1 = 1
x26,1 + x27,1 - M2 <= 0
x8,2 + x11,2 + x24,2 + x25,2 - M2 <= 0
x8,3 + x11,3 - M2 <= 0
x0,3 + x0,2 + x1,3 + x1,2 + x6,3 + x6,2 + x7,3 + x7,2 + x20,3 + x20,2 + x21,3 + x21,2 + x22,3 + x22,2 + x23,3 + x23,2 - M1 <= 0
x8,4 + x11,4 - M2 <= 0
x0,4 + x0,3 + x1,4 + x1,3 + x6,4 + x6,3 + x7,4 + x7,3 + x20,4 + x20,3 + x21,4 + x21,3 + x22,4 + x22,3 + x23,4 + x23,3 - M1 <= 0
x8,5 + x11,5 + x18,5 + x19,5 - M2 <= 0
x0,5 + x0,4 + x1,5 + x1,4 + x6,5 + x6,4 + x7,5 + x7,4 - M1 <= 0
x8,6 + x11,6 - M2 <= 0
x0,6 + x0,5 + x1,6 + x1,5 + x6,6 + x6,5 + x7,6 + x7,5 + x14,6 + x14,5 + x15,6 + x15,5 + x16,6 + x16,5 + x17,6 + x17,5 - M1 <= 0
x8,7 + x11,7 - M2 <= 0
x0,7 + x0,6 + x1,7 + x1,6 + x6,7 + x6,6 + x7,7 + x7,6 + x14,7 + x14,6 + x15,7 + x15,6 + x16,7 + x16,6 + x17,7 + x17,6 - M1 <= 0
x8,8 + x11,8 + x12,8 + x13,8 - M2 <= 0
x0,8 + x0,7 + x1,8 + x1,7 + x6,8 + x6,7 + x7,8 + x7,7 - M1 <= 0
x8,9 + x9,9 + x10,9 + x11,9 - M2 <= 0
x0,9 + x0,8 + x1,9 + x1,8 + x6,9 + x6,8 + x7,9 + x7,8 - M1 <= 0
x0,10 + x0,9 + x1,10 + x1,9 + x2,10 + x2,9 + x3,10 + x3,9 + x4,10 + x4,9 + x5,10 + x5,9 + x6,10 + x6,9 + x7,10 + x7,9 - M1 <= 0
x0,11 + x0,10 + x1,11 + x1,10 + x2,11 + x2,10 + x3,11 + x3,10 + x4,11 + x4,10 + x5,11 + x5,10 + x6,11 + x6,10 + x7,11 + x7,10 - M1 <= 0
2 x8,2 + 3 x8,3 + 4 x8,4 + 5 x8,5 + 6 x8,6 + 7 x8,7 + 8 x8,8 + 9 x8,9 - 3 x0,3 - 4 x0,4 - 5 x0,5 - 6 x0,6 - 7 x0,7 - 8 x0,8 - 9 x0,9 - 10 x0,10 <= -1
2 x8,2 + 3 x8,3 + 4 x8,4 + 5 x8,5 + 6 x8,6 + 7 x8,7 + 8 x8,8 + 9 x8,9 - 3 x1,3 - 4 x1,4 - 5 x1,5 - 6 x1,6 - 7 x1,7 - 8 x1,8 - 9 x1,9 - 10 x1,10 <= -1
9 x9,9 - 10 x2,10 <= -1
9 x9,9 - 10 x3,10 <= -1
9 x10,9 - 10 x4,10 <= -1
9 x10,9 - 10 x5,10 <= -1
2 x11,2 + 3 x11,3 + 4 x11,4 + 5 x11,5 + 6 x11,6 + 7 x11,7 + 8 x11,8 + 9 x11,9 - 3 x6,3 - 4 x6,4 - 5 x6,5 - 6 x6,6 - 7 x6,7 - 8 x6,8 - 9 x6,9 - 10 x6,10 <= -1
2 x11,2 + 3 x11,3 + 4 x11,4 + 5 x11,5 + 6 x11,6 + 7 x11,7 + 8 x11,8 + 9 x11,9 - 3 x7,3 - 4 x7,4 - 5 x7,5 - 6 x7,6 - 7 x7,7 - 8 x7,8 - 9 x7,9 - 10 x7,10 <= -1
8 x12,8 - 9 x9,9 <= -1
8 x13,8 - 9 x10,9 <= -1
6 x14,6 - 8 x12,8 <= -2
6 x15,6 - 8 x13,8 <= -2
6 x16,6 - 8 x12,8 <= -2
6 x17,6 - 8 x13,8 <= -2
5 x18,5 - 6 x14,6 <= -1
5 x18,5 - 6 x15,6 <= -1
5 x19,5 - 6 x16,6 <= -1
5 x19,5 - 6 x17,6 <= -1
3 x20,3 - 5 x18,5 <= -2
3 x21,3 - 5 x19,5 <= -2
3 x22,3 - 5 x18,5 <= -2
3 x23,3 - 5 x19,5 <= -2
2 x24,2 - 3 x20,3 <= -1
2 x24,2 - 3 x21,3 <= -1
2 x25,2 - 3 x22,3 <= -1
2 x25,2 - 3 x23,3 <= -1
1 x26,1 - 2 x8,2 - 3 x8,3 - 4 x8,4 - 5 x8,5 - 6 x8,6 - 7 x8,7 - 8 x8,8 - 9 x8,9 <= -1
1 x26,1 - 2 x24,2 <= -1
1 x27,1 - 2 x11,2 - 3 x11,3 - 4 x11,4 - 5 x11,5 - 6 x11,6 - 7 x11,7 - 8 x11,8 - 9 x11,9 <= -1
1 x27,1 - 2 x25,2 <= -1
Bounds
0 <= x0,3 <= 1
0 <= x0,4 <= 1
0 <= x0,5 <= 1
0 <= x0,6 <= 1
0 <= x0,7 <= 1
0 <= x0,8 <= 1
0 <= x0,9 <= 1
0 <= x0,10 <= 1
0 <= x1,3 <= 1
0 <= x1,4 <= 1
0 <= x1,5 <= 1
0 <= x1,6 <= 1
0 <= x1,7 <= 1
0 <= x1,8 <= 1
0 <= x1,9 <= 1
0 <= x1,10 <= 1
0 <= x2,10 <= 1
0 <= x3,10 <= 1
0 <= x4,10 <= 1
0 <= x5,10 <= 1
0 <= x6,3 <= 1
0 <= x6,4 <= 1
0 <= x6,5 <= 1
0 <= x6,6 <= 1
0 <= x6,7 <= 1
0 <= x6,8 <= 1
0 <= x6,9 <= 1
0 <= x6,10 <= 1
0 <= x7,3 <= 1
0 <= x7,4 <= 1
0 <= x7,5 <= 1
0 <= x7,6 <= 1
0 <= x7,7 <= 1
0 <= x7,8 <= 1
0 <= x7,9 <= 1
0 <= x7,10 <= 1
0 <= x8,2 <= 1
0 <= x8,3 <= 1
0 <= x8,4 <= 1
0 <= x8,5 <= 1
0 <= x8,6 <= 1
0 <= x8,7 <= 1
0 <= x8,8 <= 1
0 <= x8,9 <= 1
0 <= x9,9 <= 1
0 <= x10,9 <= 1
0 <= x11,2 <= 1
0 <= x11,3 <= 1
0 <= x11,4 <= 1
0 <= x11,5 <= 1
0 <= x11,6 <= 1
0 <= x11,7 <= 1
0 <= x11,8 <= 1
0 <= x11,9 <= 1
0 <= x12,8 <= 1
0 <= x13,8 <= 1
0 <= x14,6 <= 1
0 <= x15,6 <= 1
0 <= x16,6 <= 1
0 <= x17,6 <= 1
0 <= x18,5 <= 1
0 <= x19,5 <= 1
0 <= x20,3 <= 1
0 <= x21,3 <= 1
0 <= x22,3 <= 1
0 <= x23,3 <= 1
0 <= x24,2 <= 1
0 <= x25,2 <= 1
0 <= x26,1 <= 1
0 <= x27,1 <= 1
M1 >= 1
M2 >= 1
Generals
x0,3
x0,4
x0,5
x0,6
x0,7
x0,8
x0,9
x0,10
x1,3
x1,4
x1,5
x1,6
x1,7
x1,8
x1,9
x1,10
x2,10
x3,10
x4,10
x5,10
x6,3
x6,4
x6,5
x6,6
x6,7
x6,8
x6,9
x6,10
x7,3
x7,4
x7,5
x7,6
x7,7
x7,8
x7,9
x7,10
x8,2
x8,3
x8,4
x8,5
x8,6
x8,7
x8,8
x8,9
x9,9
x10,9
x11,2
x11,3
x11,4
x11,5
x11,6
x11,7
x11,8
x11,9
x12,8
x13,8
x14,6
x15,6
x16,6
x17,6
x18,5
x19,5
x20,3
x21,3
x22,3
x23,3
x24,2
x25,2
x26,1
x27,1
M1
M2
End
