TC_ILP/arf_1.0.sol
<?xml version = "1.0" encoding="UTF-8" standalone="yes"?>
<CPLEXSolution version="1.2">
 <header
   problemName="arf_1.0.lp"
   solutionName="incumbent"
   solutionIndex="-1"
   objectiveValue="6"
   solutionTypeValue="3"
   solutionTypeString="primal"
   solutionStatusValue="101"
   solutionStatusString="integer optimal solution"
   solutionMethodString="mip"
   primalFeasible="1"
   dualFeasible="1"
   MIPNodes="0"
   MIPIterations="0"
   writeLevel="1"/>
 <quality
   epInt="1.0000000000000001e-05"
   epRHS="9.9999999999999995e-07"
   maxIntInfeas="0"
   maxPrimalInfeas="0"
   maxX="4"
   maxSlack="4"/>
 <linearConstraints>
  <constraint name="c1" index="0" slack="0"/>
  <constraint name="c2" index="1" slack="0"/>
  <constraint name="c3" index="2" slack="0"/>
  <constraint name="c4" index="3" slack="0"/>
  <constraint name="c5" index="4" slack="0"/>
  <constraint name="c6" index="5" slack="0"/>
  <constraint name="c7" index="6" slack="0"/>
  <constraint name="c8" index="7" slack="0"/>
  <constraint name="c9" index="8" slack="0"/>
  <constraint name="c10" index="9" slack="0"/>
  <constraint name="c11" index="10" slack="0"/>
  <constraint name="c12" index="11" slack="0"/>
  <constraint name="c13" index="12" slack="0"/>
  <constraint name="c14" index="13" slack="0"/>
  <constraint name="c15" index="14" slack="0"/>
  <constraint name="c16" index="15" slack="0"/>
  <constraint name="c17" index="16" slack="0"/>
  <constraint name="c18" index="17" slack="0"/>
  <constraint name="c19" index="18" slack="0"/>
  <constraint name="c20" index="19" slack="0"/>
  <constraint name="c21" index="20" slack="0"/>
  <constraint name="c22" index="21" slack="0"/>
  <constraint name="c23" index="22" slack="0"/>
  <constraint name="c24" index="23" slack="0"/>
  <constraint name="c25" index="24" slack="0"/>
  <constraint name="c26" index="25" slack="0"/>
  <constraint name="c27" index="26" slack="0"/>
  <constraint name="c28" index="27" slack="0"/>
  <constraint name="c29" index="28" slack="0"/>
  <constraint name="c30" index="29" slack="0"/>
  <constraint name="c31" index="30" slack="0"/>
  <constraint name="c32" index="31" slack="0"/>
  <constraint name="c33" index="32" slack="2"/>
  <constraint name="c34" index="33" slack="0"/>
  <constraint name="c35" index="34" slack="0"/>
  <constraint name="c36" index="35" slack="4"/>
  <constraint name="c37" index="36" slack="2"/>
  <constraint name="c38" index="37" slack="0"/>
  <constraint name="c39" index="38" slack="2"/>
  <constraint name="c40" index="39" slack="0"/>
  <constraint name="c41" index="40" slack="0"/>
  <constraint name="c42" index="41" slack="0"/>
  <constraint name="c43" index="42" slack="0"/>
  <constraint name="c44" index="43" slack="0"/>
  <constraint name="c45" index="44" slack="0"/>
  <constraint name="c46" index="45" slack="0"/>
  <constraint name="c47" index="46" slack="4"/>
  <constraint name="c48" index="47" slack="4"/>
  <constraint name="c49" index="48" slack="0"/>
  <constraint name="c50" index="49" slack="0"/>
  <constraint name="c51" index="50" slack="0"/>
  <constraint name="c52" index="51" slack="0"/>
  <constraint name="c53" index="52" slack="4"/>
  <constraint name="c54" index="53" slack="4"/>
  <constraint name="c55" index="54" slack="0"/>
  <constraint name="c56" index="55" slack="0"/>
  <constraint name="c57" index="56" slack="0"/>
  <constraint name="c58" index="57" slack="0"/>
  <constraint name="c59" index="58" slack="0"/>
  <constraint name="c60" index="59" slack="0"/>
  <constraint name="c61" index="60" slack="0"/>
  <constraint name="c62" index="61" slack="0"/>
  <constraint name="c63" index="62" slack="0"/>
  <constraint name="c64" index="63" slack="0"/>
  <constraint name="c65" index="64" slack="0"/>
  <constraint name="c66" index="65" slack="0"/>
  <constraint name="c67" index="66" slack="0"/>
  <constraint name="c68" index="67" slack="0"/>
  <constraint name="c69" index="68" slack="0"/>
  <constraint name="c70" index="69" slack="0"/>
  <constraint name="c71" index="70" slack="0"/>
  <constraint name="c72" index="71" slack="0"/>
  <constraint name="c73" index="72" slack="1"/>
  <constraint name="c74" index="73" slack="0"/>
  <constraint name="c75" index="74" slack="1"/>
  <constraint name="c76" index="75" slack="0"/>
 </linearConstraints>
 <variables>
  <variable name="M1" index="0" value="4"/>
  <variable name="M2" index="1" value="2"/>
  <variable name="x0,3" index="2" value="0"/>
  <variable name="x0,4" index="3" value="0"/>
  <variable name="x0,5" index="4" value="0"/>
  <variable name="x0,6" index="5" value="0"/>
  <variable name="x0,7" index="6" value="0"/>
  <variable name="x0,8" index="7" value="1"/>
  <variable name="x0,9" index="8" value="-0"/>
  <variable name="x0,10" index="9" value="-0"/>
  <variable name="x1,3" index="10" value="0"/>
  <variable name="x1,4" index="11" value="0"/>
  <variable name="x1,5" index="12" value="0"/>
  <variable name="x1,6" index="13" value="0"/>
  <variable name="x1,7" index="14" value="0"/>
  <variable name="x1,8" index="15" value="1"/>
  <variable name="x1,9" index="16" value="-0"/>
  <variable name="x1,10" index="17" value="-0"/>
  <variable name="x2,10" index="18" value="1"/>
  <variable name="x3,10" index="19" value="1"/>
  <variable name="x4,10" index="20" value="1"/>
  <variable name="x5,10" index="21" value="1"/>
  <variable name="x6,3" index="22" value="0"/>
  <variable name="x6,4" index="23" value="0"/>
  <variable name="x6,5" index="24" value="0"/>
  <variable name="x6,6" index="25" value="0"/>
  <variable name="x6,7" index="26" value="0"/>
  <variable name="x6,8" index="27" value="1"/>
  <variable name="x6,9" index="28" value="-0"/>
  <variable name="x6,10" index="29" value="-0"/>
  <variable name="x7,3" index="30" value="0"/>
  <variable name="x7,4" index="31" value="0"/>
  <variable name="x7,5" index="32" value="0"/>
  <variable name="x7,6" index="33" value="0"/>
  <variable name="x7,7" index="34" value="0"/>
  <variable name="x7,8" index="35" value="1"/>
  <variable name="x7,9" index="36" value="-0"/>
  <variable name="x7,10" index="37" value="-0"/>
  <variable name="x8,2" index="38" value="0"/>
  <variable name="x8,3" index="39" value="1"/>
  <variable name="x8,4" index="40" value="0"/>
  <variable name="x8,5" index="41" value="0"/>
  <variable name="x8,6" index="42" value="0"/>
  <variable name="x8,7" index="43" value="0"/>
  <variable name="x8,8" index="44" value="0"/>
  <variable name="x8,9" index="45" value="0"/>
  <variable name="x9,9" index="46" value="1"/>
  <variable name="x10,9" index="47" value="1"/>
  <variable name="x11,2" index="48" value="0"/>
  <variable name="x11,3" index="49" value="1"/>
  <variable name="x11,4" index="50" value="0"/>
  <variable name="x11,5" index="51" value="0"/>
  <variable name="x11,6" index="52" value="0"/>
  <variable name="x11,7" index="53" value="0"/>
  <variable name="x11,8" index="54" value="0"/>
  <variable name="x11,9" index="55" value="0"/>
  <variable name="x12,8" index="56" value="1"/>
  <variable name="x13,8" index="57" value="1"/>
  <variable name="x14,6" index="58" value="1"/>
  <variable name="x15,6" index="59" value="1"/>
  <variable name="x16,6" index="60" value="1"/>
  <variable name="x17,6" index="61" value="1"/>
  <variable name="x18,5" index="62" value="1"/>
  <variable name="x19,5" index="63" value="1"/>
  <variable name="x20,3" index="64" value="1"/>
  <variable name="x21,3" index="65" value="1"/>
  <variable name="x22,3" index="66" value="1"/>
  <variable name="x23,3" index="67" value="1"/>
  <variable name="x24,2" index="68" value="1"/>
  <variable name="x25,2" index="69" value="1"/>
  <variable name="x26,1" index="70" value="1"/>
  <variable name="x27,1" index="71" value="1"/>
  <variable name="x0,2" index="72" value="0"/>
  <variable name="x1,2" index="73" value="0"/>
  <variable name="x6,2" index="74" value="0"/>
  <variable name="x7,2" index="75" value="0"/>
  <variable name="x20,2" index="76" value="0"/>
  <variable name="x21,2" index="77" value="0"/>
  <variable name="x22,2" index="78" value="0"/>
  <variable name="x23,2" index="79" value="0"/>
  <variable name="x20,4" index="80" value="0"/>
  <variable name="x21,4" index="81" value="0"/>
  <variable name="x22,4" index="82" value="0"/>
  <variable name="x23,4" index="83" value="0"/>
  <variable name="x14,5" index="84" value="0"/>
  <variable name="x15,5" index="85" value="0"/>
  <variable name="x16,5" index="86" value="0"/>
  <variable name="x17,5" index="87" value="0"/>
  <variable name="x14,7" index="88" value="0"/>
  <variable name="x15,7" index="89" value="0"/>
  <variable name="x16,7" index="90" value="0"/>
  <variable name="x17,7" index="91" value="0"/>
  <variable name="x2,9" index="92" value="0"/>
  <variable name="x3,9" index="93" value="0"/>
  <variable name="x4,9" index="94" value="0"/>
  <variable name="x5,9" index="95" value="0"/>
  <variable name="x0,11" index="96" value="0"/>
  <variable name="x1,11" index="97" value="0"/>
  <variable name="x2,11" index="98" value="0"/>
  <variable name="x3,11" index="99" value="0"/>
  <variable name="x4,11" index="100" value="0"/>
  <variable name="x5,11" index="101" value="0"/>
  <variable name="x6,11" index="102" value="0"/>
  <variable name="x7,11" index="103" value="0"/>
 </variables>
</CPLEXSolution>
